
Gurobi 5.6.3 (mac64) logging started Thu Aug 28 00:09:15 2014


Gurobi 5.6.3 (mac64) logging started Thu Aug 28 12:32:53 2014


Gurobi 5.6.3 (mac64) logging started Thu Aug 28 12:42:52 2014


Gurobi 5.6.3 (mac64) logging started Thu Aug 28 13:23:02 2014


Gurobi 5.6.3 (mac64) logging started Thu Aug 28 13:38:27 2014


Gurobi 5.6.3 (mac64) logging started Thu Aug 28 14:56:11 2014


Gurobi 5.6.3 (mac64) logging started Thu Aug 28 15:08:28 2014


Gurobi 5.6.3 (mac64) logging started Thu Aug 28 15:18:20 2014


Gurobi 5.6.3 (mac64) logging started Thu Aug 28 15:27:19 2014


Gurobi 5.6.3 (mac64) logging started Thu Aug 28 15:42:31 2014


Gurobi 5.6.3 (mac64) logging started Thu Aug 28 16:04:03 2014


Gurobi 5.6.3 (mac64) logging started Thu Aug 28 16:17:57 2014


Gurobi 5.6.3 (mac64) logging started Thu Aug 28 16:52:23 2014


Gurobi 5.6.3 (mac64) logging started Thu Aug 28 17:10:32 2014


Gurobi 5.6.3 (mac64) logging started Fri Aug 29 13:29:50 2014


Gurobi 5.6.3 (mac64) logging started Fri Aug 29 13:36:34 2014


Gurobi 5.6.3 (mac64) logging started Fri Aug 29 13:51:44 2014


Gurobi 5.6.3 (mac64) logging started Fri Aug 29 16:53:10 2014


Gurobi 5.6.3 (mac64) logging started Tue Sep  2 16:51:05 2014


Gurobi 5.6.3 (mac64) logging started Tue Sep  2 17:05:31 2014


Gurobi 5.6.3 (mac64) logging started Wed Sep  3 14:52:02 2014


Gurobi 5.6.3 (mac64) logging started Wed Sep  3 15:01:46 2014


Gurobi 5.6.3 (mac64) logging started Wed Sep  3 15:03:39 2014


Gurobi 5.6.3 (mac64) logging started Wed Sep  3 15:04:59 2014


Gurobi 5.6.3 (mac64) logging started Wed Sep  3 15:06:03 2014


Gurobi 5.6.3 (mac64) logging started Wed Sep  3 15:06:39 2014


Gurobi 5.6.3 (mac64) logging started Wed Sep  3 15:07:06 2014


Gurobi 5.6.3 (mac64) logging started Wed Sep  3 15:07:30 2014


Gurobi 5.6.3 (mac64) logging started Wed Sep  3 15:08:08 2014


Gurobi 5.6.3 (mac64) logging started Wed Sep  3 15:08:26 2014


Gurobi 5.6.3 (mac64) logging started Wed Sep  3 15:08:54 2014


Gurobi 5.6.3 (mac64) logging started Wed Sep  3 15:09:28 2014


Gurobi 5.6.3 (mac64) logging started Wed Sep  3 15:10:03 2014


Gurobi 5.6.3 (mac64) logging started Wed Sep  3 15:10:38 2014


Gurobi 5.6.3 (mac64) logging started Wed Sep  3 15:12:11 2014


Gurobi 5.6.3 (mac64) logging started Wed Sep  3 15:12:34 2014


Gurobi 5.6.3 (mac64) logging started Wed Sep  3 15:13:00 2014


Gurobi 5.6.3 (mac64) logging started Wed Sep  3 15:14:46 2014


Gurobi 5.6.3 (mac64) logging started Wed Sep  3 15:15:26 2014


Gurobi 5.6.3 (mac64) logging started Wed Sep  3 15:16:10 2014


Gurobi 5.6.3 (mac64) logging started Wed Sep  3 15:21:22 2014


Gurobi 5.6.3 (mac64) logging started Wed Sep  3 15:22:08 2014


Gurobi 5.6.3 (mac64) logging started Wed Sep  3 15:25:16 2014


Gurobi 5.6.3 (mac64) logging started Wed Sep  3 15:25:54 2014


Gurobi 5.6.3 (mac64) logging started Wed Sep  3 15:27:40 2014


Gurobi 5.6.3 (mac64) logging started Wed Sep  3 15:28:14 2014


Gurobi 5.6.3 (mac64) logging started Wed Sep  3 15:29:48 2014


Gurobi 5.6.3 (mac64) logging started Wed Sep  3 15:31:45 2014


Gurobi 5.6.3 (mac64) logging started Wed Sep  3 15:32:41 2014


Gurobi 5.6.3 (mac64) logging started Wed Sep  3 15:32:53 2014


Gurobi 5.6.3 (mac64) logging started Wed Sep  3 15:33:14 2014


Gurobi 5.6.3 (mac64) logging started Wed Sep  3 15:35:14 2014


Gurobi 5.6.3 (mac64) logging started Wed Sep  3 15:38:05 2014


Gurobi 5.6.3 (mac64) logging started Wed Sep  3 15:38:18 2014

